100 10
330 410
679 427
571 270
713 399
398 857
367 920
669 299
513 340
127 156
386 835
271 562
169 339
794 228
422 530
832 463
816 268
554 303
614 660
490 413
258 270
515 320
505 767
322 203
618 846
118 506
231 618
466 315
574 456
369 897
636 472
697 368
519 579
210 597
481 886
543 824
282 479
710 506
770 243
442 790
654 333
453 186
640 183
132 74
336 936
536 438
413 317
217 667
941 487
437 304
215 636
284 755
140 720
434 712
452 118
599 351
774 92
441 990
623 565
392 449
698 659
263 411
301 487
300 246
793 451
510 367
710 832
366 258
212 561
799 346
291 227
655 403
634 408
94 312
579 504
450 655
846 436
418 513
574 709
800 557
680 519
349 447
513 711
568 740
299 912
238 443
888 669
608 215
714 726
251 345
106 196
395 338
567 408
645 96
264 433
194 288
165 501
447 827
522 819
547 431
320 656
